c b=3,c=585
p cnf 15 24
3 -6 0
3 -9 0
3 -12 0
3 -15 0
-3 6 0
-3 9 0
-3 12 0
-3 15 0
2 -5 0
2 -8 0
2 -11 0
2 -14 0
-2 5 0
-2 8 0
-2 11 0
-2 14 0
1 -4 0
1 -7 0
1 -10 0
1 -13 0
-1 4 0
-1 7 0
-1 10 0
-1 13 0
